# Solution for model p01_budget_0p460
# Objective value = 4.6000000000006325e-01
Risk 4.6000000000006325e-01
0 0
1 0
3 0.001
4 30.001
5 3.0002000000000002e+01
6 40.002
7 3.3974155822215756e+01
9 7.2874114144031878e+01
c(0,1)_Rl 0.001
c(0,1)_Ru 0
c(0,3)_Rl 0
c(0,3)_Ru 0
c(3,4)_Rl 0
c(3,4)_Ru 0
c(4,5)_Rl 0
c(4,5)_Ru 0
c(3,5)_Rl 0
c(3,5)_Ru 0
c(1,2)_l 0
c(1,2)_u 3.3973155822215759e+01
c(2,7)_Fl 0
c(2,7)_Fu 2.8973446542188586e-01
c(1,7)_Rl 0
c(1,7)_Ru 0
c(5,6)_Rl 0
c(5,6)_Ru 0
c(3,6)_Rl 0
c(3,6)_Ru 0
c(7,8)_l 0
c(7,8)_u 3.8898958321816117e+01
c(1,8)_Fl 0
c(1,8)_Fu 0.0851327672890887
c(0,9)_Rl 0
c(0,9)_Ru 3.6873514144031880e+01
c(8,9)_Fl 0
c(8,9)_Fu 0.0851327672890887
c(6,9)_Rl 0
c(6,9)_Ru 0
Cost 3.6874514144031878e+01
